unknown
(model
; cardinality of BoundSet is 2
(declare-sort BoundSet 0)
; rep: @uc_BoundSet_0
; rep: @uc_BoundSet_1
; cardinality of UnboundSet is 1
(declare-sort UnboundSet 0)
(declare-fun groundTerm_3 () UnboundSet)
(define-fun IsPosing ((BOUND_VARIABLE_430 BoundSet)) Bool true)
(define-fun IsInPicture ((BOUND_VARIABLE_430 BoundSet)) Bool true)
(define-fun IsWith ((BOUND_VARIABLE_442 BoundSet) (BOUND_VARIABLE_443 BoundSet)) Bool false)
(define-fun IsClimbing ((BOUND_VARIABLE_430 BoundSet)) Bool false)
)
sat
(model
; cardinality of BoundSet is 1
(declare-sort BoundSet 0)
; rep: @uc_BoundSet_0
; cardinality of UnboundSet is 1
(declare-sort UnboundSet 0)
(declare-fun groundTerm_6 () UnboundSet)
(define-fun IsPosing ((BOUND_VARIABLE_473 BoundSet)) Bool true)
(define-fun IsInPicture ((BOUND_VARIABLE_473 BoundSet)) Bool true)
(define-fun IsWith ((BOUND_VARIABLE_481 BoundSet) (BOUND_VARIABLE_482 BoundSet)) Bool false)
(define-fun IsClimbing ((BOUND_VARIABLE_473 BoundSet)) Bool false)
)
